param n := 16;
param deposito := 1;

param c:=
1	11	1
11	8	1
8	5	1
5	13	1
13	14	1
14	1	1
12	13	2
7	5	2
4	5	2
6	13	2
15	14	2
16	14	2
10	11	2
9	8	2
2	8	2
3	5	2
;


param: xcoord ycoord :=
1	312	98
2	92	393
3	210	490
4	375	542
5	347	435
6	534	445
7	375	346
8	180	300
9	81	197
10	185	63
11	261	194
12	470	228
13	522	363
14	604	219
15	695	130
16	522	48
;
